(declare-const a Real)
(declare-const b Real)
(declare-const c Real)
(assert (= (* a b c) 1))
(assert (> a 0))
(assert (> b 0))
(assert (> c 0))
(assert (not (<= (+ (* -226220288 (pow b 4)) (* -173529344 (pow a 4)) (* -679477248 (pow a (/ 4 3)) (pow b (/ 8 3))) (* 26638848 (pow a 2) (pow b 2)) (* 247110656 b (pow a 3)) (* 805477376 a (pow b 3))) 0)))
(check-sat)
(get-model)
(exit)